qbf_easy_train/easy_5879_UNSAT.qdimacs
p cnf 27 71
a 3 20 23 0
e 1 2 4 5 6 7 8 9 10 11 12 13 14 15 16 17 18 19 21 22 24 25 26 27 0
2 3 -4 0
-2 -3 -4 0
2 -3 4 0
-2 3 4 0
5 1 0
5 -4 0
-1 4 -5 0
7 -5 0
7 6 0
5 -6 -7 0
-7 1 -8 0
7 -1 -8 0
-7 -1 8 0
7 1 8 0
6 -3 -9 0
-6 3 -9 0
6 3 9 0
-6 -3 9 0
2 9 -10 0
-2 -9 -10 0
2 -9 10 0
-2 9 10 0
-11 8 0
-11 10 0
-8 -10 11 0
13 12 0
13 9 0
-12 -9 -13 0
-14 7 0
-14 -1 0
-7 1 14 0
16 15 0
16 -6 0
-15 6 -16 0
17 2 0
17 6 0
-2 -6 -17 0
-19 2 0
-19 18 0
-2 -18 19 0
-20 19 0
-20 -9 0
-19 9 20 0
22 20 0
22 21 0
-20 -21 -22 0
-23 17 0
-23 22 0
-17 -22 23 0
-16 -23 -24 0
16 23 -24 0
-16 23 24 0
16 -23 24 0
-25 14 0
-25 -24 0
-14 24 25 0
13 -25 -26 0
-13 25 -26 0
13 25 26 0
-13 -25 26 0
11 26 -27 0
-11 -26 -27 0
11 -26 27 0
-11 26 27 0
10 27 0
-16 2 11 -14 -3 -18 -27 0
-15 -2 -23 -24 4 -21 -22 0
-12 -21 26 5 -14 10 19 7 0
10 18 -13 21 1 0
-3 -19 -15 0
27 0
