sat_easy_train/easy_5879_UNSAT.dimacs
p cnf 118 394
-4 2 0
-4 -3 0
-2 3 4 0
1 4 -5 0
-1 -4 -5 0
1 -4 5 0
-1 4 5 0
-8 6 0
-8 7 0
-6 -7 8 0
-10 -8 0
-10 9 0
8 -9 10 0
-11 5 0
-11 10 0
-5 -10 11 0
-12 13 -14 0
12 -13 -14 0
-12 -13 14 0
12 13 14 0
-16 14 0
-16 -15 0
-14 15 16 0
18 1 0
18 17 0
-1 -17 -18 0
12 18 -19 0
-12 -18 -19 0
12 -18 19 0
-12 18 19 0
-7 2 -20 0
7 -2 -20 0
-7 -2 20 0
7 2 20 0
21 8 0
21 -12 0
-8 12 -21 0
22 20 0
22 -21 0
-20 21 -22 0
18 -20 -24 0
-18 20 -24 0
18 20 24 0
-18 -20 24 0
-25 -23 0
-25 24 0
23 -24 25 0
22 25 -26 0
-22 -25 -26 0
22 -25 26 0
-22 25 26 0
-19 26 -27 0
19 -26 -27 0
-19 -26 27 0
19 26 27 0
28 -27 0
28 -14 0
27 14 -28 0
29 -16 0
29 28 0
16 -28 -29 0
30 -11 0
30 29 0
11 -29 -30 0
31 -17 0
31 -15 0
17 15 -31 0
32 -30 0
32 -31 0
30 31 -32 0
33 -1 0
33 -15 0
1 15 -33 0
34 -7 0
34 -33 0
7 33 -34 0
-36 35 0
-36 20 0
-35 -20 36 0
37 -34 0
37 -36 0
34 36 -37 0
-7 24 -38 0
7 -24 -38 0
-7 -24 38 0
7 24 38 0
37 38 -39 0
-37 -38 -39 0
37 -38 39 0
-37 38 39 0
40 -5 0
40 3 0
5 -3 -40 0
16 35 -41 0
-16 -35 -41 0
16 -35 41 0
-16 35 41 0
42 6 0
42 -41 0
-6 41 -42 0
40 -42 -43 0
-40 42 -43 0
40 42 43 0
-40 -42 43 0
-16 -37 -44 0
16 37 -44 0
-16 37 44 0
16 -37 44 0
43 -44 -45 0
-43 44 -45 0
43 44 45 0
-43 -44 45 0
-40 38 -46 0
40 -38 -46 0
-40 -38 46 0
40 38 46 0
-46 -20 -47 0
46 20 -47 0
-46 20 47 0
46 -20 47 0
45 47 -48 0
-45 -47 -48 0
45 -47 48 0
-45 47 48 0
49 25 0
49 6 0
-25 -6 -49 0
51 -50 0
51 -41 0
50 41 -51 0
52 -49 0
52 -51 0
49 51 -52 0
25 -1 -53 0
-25 1 -53 0
25 1 53 0
-25 -1 53 0
53 38 -54 0
-53 -38 -54 0
53 -38 54 0
-53 38 54 0
10 20 -55 0
-10 -20 -55 0
10 -20 55 0
-10 20 55 0
-57 23 0
-57 56 0
-23 -56 57 0
57 -58 -59 0
-57 58 -59 0
57 58 59 0
-57 -58 59 0
33 59 -60 0
-33 -59 -60 0
33 -59 60 0
-33 59 60 0
61 -20 0
61 -16 0
20 16 -61 0
62 23 0
62 -17 0
-23 17 -62 0
63 61 0
63 -62 0
-61 62 -63 0
-21 -63 -64 0
21 63 -64 0
-21 63 64 0
21 -63 64 0
65 -60 0
65 -64 0
60 64 -65 0
66 -55 0
66 -65 0
55 65 -66 0
-67 -54 0
-67 66 0
54 -66 67 0
-52 -67 -68 0
52 67 -68 0
-52 67 68 0
52 -67 68 0
69 48 0
69 -68 0
-48 68 -69 0
39 -69 -70 0
-39 69 -70 0
39 69 70 0
-39 -69 70 0
71 32 0
71 -70 0
-32 70 -71 0
56 -9 -72 0
-56 9 -72 0
56 9 72 0
-56 -9 72 0
72 12 -73 0
-72 -12 -73 0
72 -12 73 0
-72 12 73 0
-74 -73 0
-74 -4 0
73 4 74 0
7 -4 -75 0
-7 4 -75 0
7 4 75 0
-7 -4 75 0
76 -1 0
76 18 0
1 -18 -76 0
-77 -75 0
-77 -76 0
75 76 77 0
-78 74 0
-78 77 0
-74 -77 78 0
79 71 0
79 78 0
-71 -78 -79 0
80 -18 0
80 -34 0
18 34 -80 0
80 4 -81 0
-80 -4 -81 0
80 -4 81 0
-80 4 81 0
-82 1 0
-82 35 0
-1 -35 82 0
83 -40 0
83 -82 0
40 82 -83 0
84 -13 0
84 18 0
13 -18 -84 0
-85 83 0
-85 -84 0
-83 84 85 0
86 -81 0
86 85 0
81 -85 -86 0
87 -9 0
87 82 0
9 -82 -87 0
88 1 0
88 87 0
-1 -87 -88 0
-89 86 0
-89 88 0
-86 -88 89 0
-90 -79 0
-90 -89 0
79 89 90 0
91 56 0
91 18 0
-56 -18 -91 0
92 41 0
92 40 0
-41 -40 -92 0
93 37 0
93 92 0
-37 -92 -93 0
-94 63 0
-94 -33 0
-63 33 94 0
-95 14 0
-95 2 0
-14 -2 95 0
-96 94 0
-96 -95 0
-94 95 96 0
93 -96 -97 0
-93 96 -97 0
93 96 97 0
-93 -96 97 0
98 -91 0
98 97 0
91 -97 -98 0
100 20 0
100 99 0
-20 -99 -100 0
21 6 -101 0
-21 -6 -101 0
21 -6 101 0
-21 6 101 0
-100 -101 -102 0
100 101 -102 0
-100 101 102 0
100 -101 102 0
-103 -46 0
-103 26 0
46 -26 103 0
104 -57 0
104 20 0
57 -20 -104 0
-103 -104 -105 0
103 104 -105 0
-103 104 105 0
103 -104 105 0
-87 100 -106 0
87 -100 -106 0
-87 -100 106 0
87 100 106 0
107 105 0
107 -106 0
-105 106 -107 0
108 -12 0
108 41 0
12 -41 -108 0
9 15 -109 0
-9 -15 -109 0
9 -15 109 0
-9 15 109 0
110 -109 0
110 9 0
109 -9 -110 0
-111 -108 0
-111 110 0
108 -110 111 0
-112 107 0
-112 -111 0
-107 111 112 0
102 -112 -113 0
-102 112 -113 0
102 112 113 0
-102 -112 113 0
-114 -98 0
-114 113 0
98 -113 114 0
115 -35 0
115 58 0
35 -58 -115 0
116 -1 0
116 115 0
1 -115 -116 0
-114 116 -117 0
114 -116 -117 0
-114 -116 117 0
114 116 117 0
-118 -90 0
-118 117 0
90 -117 118 0
-47 -91 0
-54 -45 0
25 -92 -23 0
-54 105 21 0
60 12 95 -17 0
6 -3 28 25 0
6 69 37 10 -7 0
111 -84 -24 0
-107 -99 0
-65 -112 -75 60 0
-81 86 -105 91 0
46 64 -77 -67 47 0
3 -55 0
118 -17 -112 -19 -107 -97 0
-109 26 -13 -53 68 0
-77 56 9 111 -104 0
7 3 -51 -79 0
34 74 -84 0
-53 -41 110 13 -9 -28 0
-39 110 -1 -9 68 0
-2 63 -87 0
81 24 84 -16 -109 114 0
-86 -79 104 0
78 94 0
-115 105 -81 10 0
79 110 63 -40 0
25 -47 -11 -69 -85 0
84 -33 77 0
9 -112 -33 -116 110 0
-11 -38 91 -37 100 -52 0
-52 -41 51 55 0
-36 -25 -38 93 0
81 -78 -112 -98 -107 83 0
-87 115 -98 0
-111 -93 -117 1 -59 15 0
52 -7 93 90 -33 -85 0
-79 12 23 0
87 -1 -54 -40 77 -109 0
118 55 -36 -90 -89 0
51 -9 0
50 89 78 112 0
11 89 -14 -68 -87 0
-115 -57 103 3 83 49 0
81 15 17 -72 25 0
-34 -1 0
-37 -99 66 7 0
-79 78 0
-56 -69 0
109 -1 -99 -101 -104 -15 0
103 53 108 46 89 0
-86 -79 -18 0
118 0
